analyze/results_flowersnark/final_miplib_symretope_if_extended_generating_set_cpx_v802__settings_final_nosym_norestarts__1__square31.mps.gz.sol
solution status: optimal solution found
objective value:                                   15
x_1_1_15                                            1 	(obj:1)
x_1_16_16                           0.999999999999999 	(obj:1)
x_16_1_4                                            1 	(obj:1)
x_16_5_5                                            1 	(obj:1)
x_16_10_5                                           1 	(obj:1)
x_16_15_1                                           1 	(obj:1)
x_17_15_2                                           1 	(obj:1)
x_17_17_15                                          1 	(obj:1)
x_19_15_2                                           1 	(obj:1)
x_20_1_2                                            1 	(obj:1)
x_20_3_2                                            1 	(obj:1)
x_21_5_1                                            1 	(obj:1)
x_21_6_11                                           1 	(obj:1)
x_22_1_5                                            1 	(obj:1)
x_27_1_5                                            1 	(obj:1)
y_16                                0.999999999999999 	(obj:0)
y_15                                                2 	(obj:0)
y_11                                                1 	(obj:0)
y_5                                                 4 	(obj:0)
y_4                                                 1 	(obj:0)
y_2                                                 4 	(obj:0)
y_1                                                 2 	(obj:0)
