analyze/results_flowersnark/final_miplib_symretope_if_extended_generating_set_cpx_v802__settings_final_nosym_norestarts__1__square31.mps.gz.out
FILENAME:   /home/mcs001/s132664/testsets/IP/miplib2017/square31.mps.gz
SETTINGS:   settings_final_nosym_norestarts
TIMELIMIT:  7200
OUTPUTNAME: final_miplib_symretope_if_extended_generating_set_cpx_v802__settings_final_nosym_norestarts__1__
BINNAME:    bin/sbcs.linux.x86_64.gnu.opt.cpx
BASENAME:   square31.mps.gz
SEED:       1
@01 /home/mcs001/s132664/testsets/IP/miplib2017/square31.mps.gz ===========
@02 square31.mps.gz
@03 1686651470
SCIP version 8.0.2 [precision: 8 byte] [memory: block] [mode: optimized] [LP solver: CPLEX 20.1.0.0] [GitHash: 5f0473c]
Copyright (C) 2002-2022 Konrad-Zuse-Zentrum fuer Informationstechnik Berlin (ZIB)

Symretope propagation methods - (c) Jasper van Doornmalen, Christopher Hojny.
[GitHash: 2fd0484]

reading parameter file <../settings/settings_final_nosym_norestarts.set> ...

Changed settings:
limits/time = 7200
limits/restarts = 0
misc/usesymmetry = 0
randomization/randomseedshift = 1
constraints/orbisack/sepafreq = -1
constraints/symresack/sepafreq = -1
propagating/symmetry/detectsubgroups = FALSE
propagating/symmetry/usesymretopes = FALSE
propagating/symmetry/relabelsymretopes = 0
propagating/symmetry/ofsymcomptiming = 0
constraints/symretope/sepafreq = -1
constraints/symretope/peek = FALSE


solving problem ...

original problem has 28860 variables (28830 bin, 30 int, 0 impl, 0 cont) and 19435 constraints
presolving:
(round 1, fast)       18415 del vars, 18415 del conss, 0 add conss, 18445 chg bounds, 0 chg sides, 0 chg coeffs, 0 upgd conss, 0 impls, 961 clqs
(round 2, exhaustive) 18415 del vars, 18415 del conss, 0 add conss, 18445 chg bounds, 0 chg sides, 0 chg coeffs, 961 upgd conss, 0 impls, 961 clqs
(round 3, exhaustive) 18415 del vars, 18434 del conss, 0 add conss, 18445 chg bounds, 19 chg sides, 0 chg coeffs, 961 upgd conss, 0 impls, 961 clqs
   (17.9s) probing: 1000/10415 (9.6%) - 0 fixings, 0 aggregations, 22365 implications, 0 bound changes
   (17.9s) probing: 1001/10415 (9.6%) - 0 fixings, 0 aggregations, 22391 implications, 0 bound changes
   (17.9s) probing aborted: 1000/1000 successive useless probings
presolving (4 rounds: 4 fast, 3 medium, 3 exhaustive):
 18415 deleted vars, 18434 deleted constraints, 0 added constraints, 18445 tightened bounds, 0 added holes, 19 changed sides, 0 changed coefficients
 22243 implications, 1109 cliques
presolved problem has 10445 variables (10415 bin, 30 int, 0 impl, 0 cont) and 1001 constraints
    961 constraints of type <setppc>
     40 constraints of type <linear>
transformed objective value is always integral (scale: 1)
Presolving Time: 17.74

 time | node  | left  |LP iter|LP it/n|mem/heur|mdpt |vars |cons |rows |cuts |sepa|confs|strbr|  dualbound   | primalbound  |  gap   | compl. 
p19.5s|     1 |     0 |     0 |     - |  clique|   0 |  10k|1001 |1001 |   0 |  0 |   0 |   0 | 4.000000e+00 | 3.400000e+01 | 750.00%| unknown
 33.4s|     1 |     0 |   853 |     - |  1548M |   0 |  10k|1027 |1001 |   0 |  0 |  41 |   0 | 8.500000e+00 | 3.400000e+01 | 300.00%| unknown
  171s|     1 |     2 | 19543 |     - |  1552M |   0 |  10k|1030 |1001 |   0 |  2 |  45 |  50 | 8.786534e+00 | 3.400000e+01 | 286.96%| unknown
* 172s|     2 |     1 | 22228 |21375.0 |strongbr|   1 |  10k|1015 |1001 |   0 |  1 |  45 |  50 | 8.786534e+00 | 1.500000e+01 |  70.72%| unknown
  349s|   100 |    19 | 89012 | 890.5 |  1563M |  14 |  10k|1049 |1001 |   0 |  2 |  87 | 233 | 8.813280e+00 | 1.500000e+01 |  70.20%|  66.87%
  481s|   200 |    59 |222764 |1115.1 |  1579M |  28 |  10k|1074 |1001 |   0 |  2 | 130 | 307 | 9.254860e+00 | 1.500000e+01 |  62.08%|  67.26%
  605s|   300 |   109 |348971 |1164.3 |  1595M |  31 |  10k|1133 |1001 |   0 |  4 | 298 | 387 | 1.012478e+01 | 1.500000e+01 |  48.15%|  67.66%
  663s|   400 |   131 |413024 |1033.0 |  1603M |  45 |  10k|1181 |1001 |   0 |  0 | 391 | 438 | 1.014669e+01 | 1.500000e+01 |  47.83%|  67.66%
  714s|   500 |   141 |475452 | 951.1 |  1609M |  46 |  10k|1206 |1001 |   0 |  0 | 450 | 480 | 1.027147e+01 | 1.500000e+01 |  46.04%|  69.82%
  786s|   600 |   161 |588003 | 980.2 |  1621M |  48 |  10k|1281 |1001 |   0 |  2 | 609 | 536 | 1.083592e+01 | 1.500000e+01 |  38.43%|  69.83%
  828s|   700 |   169 |642185 | 917.5 |  1627M |  52 |  10k|1287 |1001 |   0 |  4 | 726 | 577 | 1.114699e+01 | 1.500000e+01 |  34.57%|  71.14%
  868s|   800 |   171 |696122 | 870.2 |  1631M |  56 |  10k|1312 |1001 |   0 |  0 | 814 | 631 | 1.116372e+01 | 1.500000e+01 |  34.36%|  71.14%
  904s|   900 |   175 |750640 | 834.0 |  1634M |  58 |  10k|1305 |1001 |   0 |  1 | 850 | 674 | 1.122758e+01 | 1.500000e+01 |  33.60%|  71.48%
  942s|  1000 |   175 |801369 | 801.3 |  1640M |  60 |  10k|1344 |1001 |   0 |  2 | 935 | 736 | 1.144090e+01 | 1.500000e+01 |  31.11%|  71.91%
  973s|  1100 |   175 |849842 | 772.5 |  1643M |  63 |  10k|1353 |1001 |   0 |  0 | 978 | 772 | 1.167094e+01 | 1.500000e+01 |  28.52%|  71.92%
 time | node  | left  |LP iter|LP it/n|mem/heur|mdpt |vars |cons |rows |cuts |sepa|confs|strbr|  dualbound   | primalbound  |  gap   | compl. 
 1008s|  1200 |   179 |894047 | 744.9 |  1645M |  65 |  10k|1412 |1001 |   0 |  2 |1075 | 821 | 1.178869e+01 | 1.500000e+01 |  27.24%|  71.93%
 1040s|  1300 |   175 |941359 | 724.0 |  1650M |  74 |  10k|1425 |1001 |   0 |  2 |1174 | 872 | 1.185556e+01 | 1.500000e+01 |  26.52%|  72.27%
 1077s|  1400 |   165 |990023 | 707.1 |  1660M |  74 |  10k|1540 |1001 |   0 |  2 |1354 | 969 | 1.190909e+01 | 1.500000e+01 |  25.95%|  72.35%
 1114s|  1500 |   155 |  1027k| 684.7 |  1674M |  74 |  10k|1634 |1001 |   0 |  2 |1570 |1087 | 1.196006e+01 | 1.500000e+01 |  25.42%|  72.39%
 1135s|  1600 |   151 |  1062k| 663.8 |  1676M |  74 |  10k|1652 |1001 |   0 |  2 |1648 |1124 | 1.196006e+01 | 1.500000e+01 |  25.42%|  72.40%
 1167s|  1700 |   143 |  1106k| 650.5 |  1681M |  74 |  10k|1621 |1001 |   0 |  0 |1797 |1206 | 1.201690e+01 | 1.500000e+01 |  24.82%|  72.66%
 1203s|  1800 |   123 |  1146k| 636.7 |  1694M |  82 |  10k|1692 |1001 |   0 |  0 |2039 |1326 | 1.233676e+01 | 1.500000e+01 |  21.59%|  73.17%
 1223s|  1900 |   111 |  1176k| 619.1 |  1696M |  84 |  10k|1614 |1001 |   0 |  0 |2078 |1357 | 1.250579e+01 | 1.500000e+01 |  19.94%|  73.37%
 1258s|  2000 |    83 |  1218k| 609.3 |  1702M |  96 |  10k|1747 |1001 |   0 |  0 |2358 |1482 | 1.263495e+01 | 1.500000e+01 |  18.72%|  73.44%
 1298s|  2100 |     1 |  1253k| 596.7 |  1715M |  96 |  10k|1796 |1001 |   0 |  0 |2754 |1673 | 1.390990e+01 | 1.500000e+01 |   7.84%|  73.77%

SCIP Status        : problem is solved [optimal solution found]
Solving Time (sec) : 1298.26
Solving Nodes      : 2101
Primal Bound       : +1.50000000000000e+01 (2 solutions)
Dual Bound         : +1.50000000000000e+01
Gap                : 0.00 %
SCIP Status        : problem is solved [optimal solution found]
Total Time         :    1300.63
  solving          :    1298.26
  presolving       :      17.74 (included in solving)
  reading          :       2.37
  copying          :       1.16 (12 #copies) (minimal 0.09, maximal 0.10, average 0.10)
Original Problem   :
  Problem name     : square31
  Variables        : 28860 (28830 binary, 30 integer, 0 implicit integer, 0 continuous)
  Constraints      : 19435 initial, 19435 maximal
  Objective        : minimize, 28830 non-zeros (abs.min = 1, abs.max = 1)
Presolved Problem  :
  Problem name     : t_square31
  Variables        : 10445 (10415 binary, 30 integer, 0 implicit integer, 0 continuous)
  Constraints      : 1001 initial, 1837 maximal
  Objective        : minimize, 10295 non-zeros (abs.min = 1, abs.max = 1)
  Nonzeros         : 1128221 constraint, 780560 clique table
Presolvers         :   ExecTime  SetupTime  Calls  FixedVars   AggrVars   ChgTypes  ChgBounds   AddHoles    DelCons    AddCons   ChgSides   ChgCoefs
  boundshift       :       0.00       0.00      0          0          0          0          0          0          0          0          0          0
  convertinttobin  :       0.00       0.00      0          0          0          0          0          0          0          0          0          0
  domcol           :       0.19       0.00      1          0          0          0          0          0          0          0          0          0
  dualagg          :       0.00       0.00      0          0          0          0          0          0          0          0          0          0
  dualcomp         :       0.00       0.00      0          0          0          0          0          0          0          0          0          0
  dualinfer        :       0.00       0.00      0          0          0          0          0          0          0          0          0          0
  dualsparsify     :       0.91       0.00      1          0          0          0          0          0          0          0          0          0
  gateextraction   :       0.00       0.00      0          0          0          0          0          0          0          0          0          0
  implics          :       0.00       0.00      3          0          0          0          0          0          0          0          0          0
  inttobinary      :       0.00       0.00      4          0          0          0          0          0          0          0          0          0
  qpkktref         :       0.00       0.00      0          0          0          0          0          0          0          0          0          0
  redvub           :       0.00       0.00      0          0          0          0          0          0          0          0          0          0
  sparsify         :       0.70       0.00      1          0          0          0          0          0          0          0          0          0
  stuffing         :       0.00       0.00      0          0          0          0          0          0          0          0          0          0
  trivial          :       0.00       0.00      4          0          0          0          0          0          0          0          0          0
  tworowbnd        :       0.00       0.00      0          0          0          0          0          0          0          0          0          0
  dualfix          :       0.00       0.00      4          0          0          0          0          0          0          0          0          0
  genvbounds       :       0.00       0.00      0          0          0          0          0          0          0          0          0          0
  probing          :      10.69       0.00      1          0          0          0          0          0          0          0          0          0
  pseudoobj        :       0.00       0.00      0          0          0          0          0          0          0          0          0          0
  symmetry         :       0.00       0.00      0          0          0          0          0          0          0          0          0          0
  vbounds          :       0.02       0.00      1          0          0          0          0          0          0          0          0          0
  knapsack         :       0.00       0.00      0          0          0          0          0          0          0          0          0          0
  setppc           :       0.39       0.01      6          0          0          0          0          0          0          0          0          0
  linear           :       4.37       0.90      7      18415          0          0      18445          0      18434          0         19          0
  logicor          :       0.00       0.00      0          0          0          0          0          0          0          0          0          0
  bounddisjunction :       0.00       0.00      0          0          0          0          0          0          0          0          0          0
  benders          :       0.00       0.00      0          0          0          0          0          0          0          0          0          0
  components       :       0.18       0.00      1          0          0          0          0          0          0          0          0          0
  root node        :          -          -      -       2125          -          -       2211          -          -          -          -          -
Constraints        :     Number  MaxNumber  #Separate #Propagate    #EnfoLP    #EnfoRelax  #EnfoPS    #Check   #ResProp    Cutoffs    DomReds       Cuts    Applied      Conss   Children
  benderslp        :          0          0          0          0       1289          0          0         62          0          0          0          0          0          0          0
  integral         :          0          0          0          0       1289          0          0         62          0          1       2055          0          0       1729       2100
  knapsack         :          0+        21          0      13706          0          0          0          0        248          2        476          0          0          0          0
  setppc           :        961+       983          1      20472          0          0          0         56     582599        199     581017          0          0          0          0
  linear           :         40+        42          1      20273          0          0          0          2     209544         43      35602          0          0          0          0
  logicor          :          0+        98          1       3930          0          0          0          0        127          4         49          0          0          0          0
  bounddisjunction :          0+       735          0       5274          0          0          0          0        588          3         31          0          0          0          0
  benders          :          0          0          0          0          0          0          0          3          0          0          0          0          0          0          0
  countsols        :          0          0          0          0          0          0          0          3          0          0          0          0          0          0          0
  components       :          0          0          0          0          0          0          0          0          0          0          0          0          0          0          0
Constraint Timings :  TotalTime  SetupTime   Separate  Propagate     EnfoLP     EnfoPS     EnfoRelax   Check    ResProp    SB-Prop
  benderslp        :       0.00       0.00       0.00       0.00       0.00       0.00       0.00       0.00       0.00       0.00
  integral         :     542.12       0.00       0.00       0.00     542.11       0.00       0.00       0.01       0.00       0.00
  knapsack         :       0.06       0.00       0.00       0.03       0.00       0.00       0.00       0.00       0.00       0.02
  setppc           :      10.62       0.01       0.08       3.40       0.00       0.00       0.00       0.01       1.86       5.26
  linear           :       7.18       0.90       0.00       2.26       0.00       0.00       0.00       0.00       3.53       0.48
  logicor          :       0.06       0.00       0.00       0.03       0.00       0.00       0.00       0.00       0.02       0.01
  bounddisjunction :       0.34       0.00       0.00       0.19       0.00       0.00       0.00       0.00       0.06       0.08
  benders          :       0.00       0.00       0.00       0.00       0.00       0.00       0.00       0.00       0.00       0.00
  countsols        :       0.00       0.00       0.00       0.00       0.00       0.00       0.00       0.00       0.00       0.00
  components       :       0.00       0.00       0.00       0.00       0.00       0.00       0.00       0.00       0.00       0.00
Propagators        : #Propagate   #ResProp    Cutoffs    DomReds
  dualfix          :          3          0          0          0
  genvbounds       :          0          0          0          0
  nlobbt           :          0          0          0          0
  obbt             :          0          0          0          0
  probing          :          0          0          0          0
  pseudoobj        :       8053          0          0          4
  redcost          :       4990          0          0     818486
  rootredcost      :          2          0          0        605
  symmetry         :          0          0          0          0
  vbounds          :       7169          0          0          0
Propagator Timings :  TotalTime  SetupTime   Presolve  Propagate    ResProp    SB-Prop
  dualfix          :       0.00       0.00       0.00       0.00       0.00       0.00
  genvbounds       :       0.01       0.00       0.00       0.01       0.00       0.00
  nlobbt           :       0.00       0.00       0.00       0.00       0.00       0.00
  obbt             :       0.00       0.00       0.00       0.00       0.00       0.00
  probing          :      10.69       0.00      10.69       0.00       0.00       0.00
  pseudoobj        :       0.06       0.00       0.00       0.06       0.00       0.00
  redcost          :       3.99       0.00       0.00       3.99       0.00       0.00
  rootredcost      :       0.06       0.00       0.00       0.06       0.00       0.00
  symmetry         :       0.00       0.00       0.00       0.00       0.00       0.00
  vbounds          :       0.08       0.00       0.02       0.05       0.00       0.01
Conflict Analysis  :       Time      Calls    Success    DomReds  Conflicts   Literals    Reconvs ReconvLits   Dualrays   Nonzeros   LP Iters   (pool size: [10000,10000])
  propagation      :       0.93        210        208          -       1039     1379.4          3     1585.7          -          -          -
  infeasible LP    :       4.94        173         28          -        127      960.7          0        0.0         24      360.1          0
  bound exceed. LP :     110.83        939        968          -       4623      896.8         30      224.9         37        1.0      14250
  strong branching :       0.00          0          0          -          0        0.0          0        0.0          -          -          0
  pseudo solution  :       0.00          0          0          -          0        0.0          0        0.0          -          -          -
  applied globally :      54.83          -          -         37       2565      576.8          -          -         61          -          -
  applied locally  :          -          -          -          0        132     2177.3          -          -          0          -          -
Separators         :   ExecTime  SetupTime      Calls  RootCalls    Cutoffs    DomReds  FoundCuts ViaPoolAdd  DirectAdd    Applied ViaPoolApp  DirectApp      Conss
  cut pool         :       0.00          -          0          0          -          -          0          0          -          -          -          -          -    (maximal pool size:          0)
  aggregation      :       1.06       0.00         90          1          0          0          0          0          0          0          0          0          0
  > cmir           :          -          -          -          -          -          -          -          0          0          0          0          0          -
  > flowcover      :          -          -          -          -          -          -          -          0          0          0          0          0          -
  > knapsackcover  :          -          -          -          -          -          -          -          0          0          0          0          0          -
  cgmip            :       0.00       0.00          0          0          0          0          0          0          0          0          0          0          0
  clique           :       5.33       0.00          1          1          0          0          0          0          0          0          0          0          0
  closecuts        :       0.00       0.00          0          0          0          0          0          0          0          0          0          0          0
  convexproj       :       0.00       0.00          0          0          0          0          0          0          0          0          0          0          0
  disjunctive      :       0.00       0.00          0          0          0          0          0          0          0          0          0          0          0
  eccuts           :       0.00       0.00          0          0          0          0          0          0          0          0          0          0          0
  gauge            :       0.00       0.00          0          0          0          0          0          0          0          0          0          0          0
  gomory           :       4.16       0.00         90          1          0          0          0          0          0          0          0          0          0
  > gomorymi       :          -          -          -          -          -          -          -          0          0          0          0          0          -
  > strongcg       :          -          -          -          -          -          -          -          0          0          0          0          0          -
  impliedbounds    :       0.05       0.00         90          1          0          0          0          0          0          0          0          0          0
  interminor       :       0.00       0.00          0          0          0          0          0          0          0          0          0          0          0
  intobj           :       0.00       0.00          0          0          0          0          0          0          0          0          0          0          0
  mcf              :       0.01       0.00          1          1          0          0          0          0          0          0          0          0          0
  minor            :       0.00       0.00          0          0          0          0          0          0          0          0          0          0          0
  mixing           :       0.00       0.00         90          1          0          0          0          0          0          0          0          0          0
  oddcycle         :       0.00       0.00          0          0          0          0          0          0          0          0          0          0          0
  rapidlearning    :       0.01       0.00          0          0          0          0          0          0          0          0          0          0          0
  rlt              :       0.00       0.00          1          1          0          0          0          0          0          0          0          0          0
  zerohalf         :       0.51       0.00         90          1          0          0          0          0          0          0          0          0          0
Cutselectors       :   ExecTime  SetupTime      Calls  RootCalls   Selected     Forced   Filtered  RootSelec   RootForc   RootFilt 
  hybrid           :       0.00       0.00          0          0          0          0          0          0          0          0
Pricers            :   ExecTime  SetupTime      Calls       Vars
  problem variables:       0.00          -          0          0
Branching Rules    :   ExecTime  SetupTime   BranchLP  BranchExt   BranchPS    Cutoffs    DomReds       Cuts      Conss   Children
  allfullstrong    :       0.00       0.00          0          0          0          0          0          0          0          0
  cloud            :       0.00       0.00          0          0          0          0          0          0          0          0
  distribution     :       0.00       0.00          0          0          0          0          0          0          0          0
  fullstrong       :       0.00       0.00          0          0          0          0          0          0          0          0
  inference        :       0.00       0.00          0          0          0          0          0          0          0          0
  leastinf         :       0.00       0.00          0          0          0          0          0          0          0          0
  lookahead        :       0.00       0.00          0          0          0          0          0          0          0          0
  mostinf          :       0.00       0.00          0          0          0          0          0          0          0          0
  multaggr         :       0.00       0.00          0          0          0          0          0          0          0          0
  nodereopt        :       0.00       0.00          0          0          0          0          0          0          0          0
  pscost           :       0.00       0.00          0          0          0          0          0          0          0          0
  random           :       0.00       0.00          0          0          0          0          0          0          0          0
  relpscost        :     542.10       0.00       1289          0          0          1       2055          0       2093       2100
  vanillafullstrong:       0.00       0.00          0          0          0          0          0          0          0          0
Primal Heuristics  :   ExecTime  SetupTime      Calls      Found       Best
  LP solutions     :       0.00          -          -          0          0
  relax solutions  :       0.00          -          -          0          0
  pseudo solutions :       0.00          -          -          0          0
  strong branching :       0.01          -          -          1          1
  actconsdiving    :       0.00       0.00          0          0          0
  adaptivediving   :       4.44       0.00          8          0          0
  alns             :       1.30       0.00          5          0          0
  bound            :       0.00       0.00          0          0          0
  clique           :       0.41       0.00          1          1          1
  coefdiving       :       0.00       0.00          0          0          0
  completesol      :       0.00       0.00          0          0          0
  conflictdiving   :       3.17       0.00          4          0          0
  crossover        :       0.00       0.00          0          0          0
  dins             :       0.00       0.00          0          0          0
  distributiondivin:       2.83       0.00          5          0          0
  dps              :       0.00       0.00          0          0          0
  dualval          :       0.00       0.00          0          0          0
  farkasdiving     :       0.00       0.00          0          0          0
  feaspump         :      76.50       0.00          2          0          0
  fixandinfer      :       0.00       0.00          0          0          0
  fracdiving       :       0.48       0.00          5          0          0
  gins             :       0.19       0.00          0          0          0
  guideddiving     :       3.89       0.00          5          0          0
  indicator        :       0.00       0.00          0          0          0
  intdiving        :       0.00       0.00          0          0          0
  intshifting      :       0.00       0.00          0          0          0
  linesearchdiving :       1.93       0.00          5          0          0
  localbranching   :       0.00       0.00          0          0          0
  locks            :       0.16       0.00          1          0          0
  lpface           :       0.00       0.00          0          0          0
  mpec             :       0.00       0.00          0          0          0
  multistart       :       0.00       0.00          0          0          0
  mutation         :       0.00       0.00          0          0          0
  nlpdiving        :       0.00       0.00          0          0          0
  objpscostdiving  :      31.03       0.00          2          0          0
  octane           :       0.00       0.00          0          0          0
  ofins            :       0.00       0.00          0          0          0
  oneopt           :       0.03       0.00          2          0          0
  padm             :       0.00       0.00          0          0          0
  proximity        :       0.00       0.00          0          0          0
  pscostdiving     :       0.95       0.00          5          0          0
  randrounding     :       0.60       0.00         51          0          0
  rens             :       0.15       0.00          1          0          0
  reoptsols        :       0.00       0.00          0          0          0
  repair           :       0.00       0.00          0          0          0
  rins             :       1.18       0.00          6          0          0
  rootsoldiving    :      24.06       0.00          2          0          0
  rounding         :       1.65       0.00        432          0          0
  shiftandpropagate:       0.00       0.00          0          0          0
  shifting         :       3.41       0.00        117          0          0
  simplerounding   :       0.00       0.00          0          0          0
  subnlp           :       0.00       0.00          0          0          0
  trivial          :       0.06       0.00          2          0          0
  trivialnegation  :       0.00       0.00          0          0          0
  trustregion      :       0.00       0.00          0          0          0
  trysol           :       0.00       0.00          0          0          0
  twoopt           :       0.00       0.00          0          0          0
  undercover       :       0.00       0.00          0          0          0
  vbounds          :      12.72       0.00          1          0          0
  veclendiving     :       2.82       0.00          5          0          0
  zeroobj          :       0.00       0.00          0          0          0
  zirounding       :       0.14       0.00       1000          0          0
  other solutions  :          -          -          -          0          -
LP                 :       Time      Calls Iterations  Iter/call   Iter/sec  Time-0-It Calls-0-It    ItLimit
  primal LP        :       0.00          0          0       0.00          -       0.00          0
  dual LP          :     511.01       4735    1126519     491.93    2204.49      10.61       2445
  lex dual LP      :       0.00          0          0       0.00          -
  barrier LP       :       0.00          0          0       0.00          -       0.00          0
  resolve instable :       0.00          0          0       0.00          -
  diving/probing LP:     137.46         74     126780    1713.24     922.28
  strong branching :     425.81       1673     704221     420.93    1653.83          -          -        863
    (at root node) :          -         50      41758     835.16          -
  conflict analysis:      41.74       1425      14250      10.00     341.44
B&B Tree           :
  number of runs   :          1
  nodes            :       2101 (1050 internal, 1051 leaves)
  feasible leaves  :          0
  infeas. leaves   :        110
  objective leaves :        941
  nodes (total)    :       2101 (1050 internal, 1051 leaves)
  nodes left       :          0
  max depth        :         96
  max depth (total):         96
  backtracks       :        417 (19.8%)
  early backtracks :          0 (0.0%)
  nodes exc. ref.  :          0 (0.0%)
  delayed cutoffs  :          0
  repropagations   :         62 (839 domain reductions, 0 cutoffs)
  avg switch length:       9.08
  switching time   :       6.33
Root Node          :
  First LP value   : +8.49999999999999e+00
  First LP Iters   :        853 (877.37 Iter/sec)
  First LP Time    :       0.97
  Final Dual Bound : +8.78653399235886e+00
  Final Root Iters :        853
  Root LP Estimate : +1.34417418357129e+01
Solution           :
  Solutions found  :          2 (2 improvements)
  First Solution   : +3.40000000000000e+01   (in run 1, after 1 nodes, 19.45 seconds, depth 6, found by <clique>)
  Gap First Sol.   :     750.00 %
  Gap Last Sol.    :      70.72 %
  Primal Bound     : +1.50000000000000e+01   (in run 1, after 2 nodes, 172.28 seconds, depth 3, found by <relaxation>)
  Dual Bound       : +1.50000000000000e+01
  Gap              :       0.00 %
Integrals          :      Total       Avg%
  primal-dual      :   47217.96      36.37
  primal-ref       :          -          - (not evaluated)
  dual-ref         :          -          - (not evaluated)
written solution information to file <results/final_miplib_symretope_if_extended_generating_set_cpx_v802__settings_final_nosym_norestarts__1__square31.mps.gz.sol>
@04 1686652771
